(set-logic HORN)
(declare-fun assign_27_11_286_abs01 (Int Int Int Int Int Int Int) Bool)
(declare-fun assert_26_11_277_abs01 (Int Int Int Int Int Int Int) Bool)
(declare-fun while_24_1_289_abs01 (Int Int Int Int Int Int Int) Bool)
(declare-fun assign_23_8_206_abs01 (Int Int Int Int Int Int Int) Bool)
(declare-fun assign_19_5_158_abs01 (Int Int Int Int Int Int Int) Bool)
(declare-fun arrayassign_18_5_149_abs01 (Int Int Int Int Int Int Int) Bool)
(declare-fun while_16_1_161_abs01 (Int Int Int Int Int Int Int) Bool)
(declare-fun assign_15_1_85_abs01 (Int Int Int Int Int Int Int) Bool)
(declare-fun assign_12_8_79_abs01 (Int Int Int Int Int Int Int) Bool)
(declare-fun assign_11_1_67_abs01 (Int Int Int Int Int Int Int) Bool)
(declare-fun end_abs01 (Int Int Int Int Int Int Int) Bool)
(declare-fun start_abs01 (Int Int Int Int Int Int Int) Bool)
(assert (forall ((b (Array Int Int)) (a (Array Int Int)) (Nb Int) (Na Int) (i Int) (vabs_f_f Int) (vabs_s_f_f Int)) (start_abs01 vabs_f_f (select b vabs_f_f) vabs_s_f_f (select a vabs_s_f_f) Nb Na i)))
(assert (forall ((i Int) (Na Int) (Nb Int) (a (Array Int Int)) (b (Array Int Int)) (vabs_0_f_f Int) (vabs_0_s_f_f Int)) (=> (start_abs01 vabs_0_f_f (select b vabs_0_f_f) vabs_0_s_f_f (select a vabs_0_s_f_f) Nb Na i) (assign_11_1_67_abs01 vabs_0_f_f (select b vabs_0_f_f) vabs_0_s_f_f (select a vabs_0_s_f_f) Nb Na i))))
(assert (forall ((rnd Int) (i Int) (Na Int) (Nb Int) (a (Array Int Int)) (b (Array Int Int)) (vabs_0_f_f Int) (vabs_0_s_f_f Int)) (=> (assign_11_1_67_abs01 vabs_0_f_f (select b vabs_0_f_f) vabs_0_s_f_f (select a vabs_0_s_f_f) Nb Na i) (assign_12_8_79_abs01 vabs_0_f_f (select b vabs_0_f_f) vabs_0_s_f_f (select a vabs_0_s_f_f) Nb rnd i))))
(assert (forall ((rnd Int) (i Int) (Na Int) (Nb Int) (a (Array Int Int)) (b (Array Int Int)) (vabs_0_f_f Int) (vabs_0_s_f_f Int)) (=> (assign_12_8_79_abs01 vabs_0_f_f (select b vabs_0_f_f) vabs_0_s_f_f (select a vabs_0_s_f_f) Nb Na i) (assign_15_1_85_abs01 vabs_0_f_f (select b vabs_0_f_f) vabs_0_s_f_f (select a vabs_0_s_f_f) rnd Na i))))
(assert (forall ((i Int) (Na Int) (Nb Int) (a (Array Int Int)) (b (Array Int Int)) (vabs_0_f_f Int) (vabs_0_s_f_f Int)) (=> (assign_15_1_85_abs01 vabs_0_f_f (select b vabs_0_f_f) vabs_0_s_f_f (select a vabs_0_s_f_f) Nb Na i) (while_16_1_161_abs01 vabs_0_f_f (select b vabs_0_f_f) vabs_0_s_f_f (select a vabs_0_s_f_f) Nb Na Na))))
(assert (forall ((b (Array Int Int)) (a (Array Int Int)) (Nb Int) (Na Int) (i Int) (vabs_0_f_f Int) (vabs_0_s_f_f Int)) (=> (and (while_16_1_161_abs01 vabs_0_f_f (select b vabs_0_f_f) vabs_0_s_f_f (select a vabs_0_s_f_f) Nb Na i) (< i (+ Na Nb))) (arrayassign_18_5_149_abs01 vabs_0_f_f (select b vabs_0_f_f) vabs_0_s_f_f (select a vabs_0_s_f_f) Nb Na i))))
(assert (forall ((b (Array Int Int)) (a (Array Int Int)) (Nb Int) (Na Int) (i Int) (vabs_0_f_f Int) (vabs_0_s_f_f Int)) (=> (and (while_16_1_161_abs01 vabs_0_f_f (select b vabs_0_f_f) vabs_0_s_f_f (select a vabs_0_s_f_f) Nb Na i) (not (< i (+ Na Nb)))) (assign_23_8_206_abs01 vabs_0_f_f (select b vabs_0_f_f) vabs_0_s_f_f (select a vabs_0_s_f_f) Nb Na i))))
(assert (forall ((i Int) (Na Int) (Nb Int) (a (Array Int Int)) (b (Array Int Int)) (vabs_0_f_f Int) (vabs_0_s_f_f Int)) (=> (and (arrayassign_18_5_149_abs01 (- i Na) (select b (- i Na)) vabs_0_s_f_f (select a vabs_0_s_f_f) Nb Na i) (arrayassign_18_5_149_abs01 vabs_0_f_f (select b vabs_0_f_f) vabs_0_s_f_f (select a vabs_0_s_f_f) Nb Na i)) (assign_19_5_158_abs01 vabs_0_f_f (select b vabs_0_f_f) vabs_0_s_f_f (select (store a i (select b (- i Na))) vabs_0_s_f_f) Nb Na i))))
(assert (forall ((i Int) (Na Int) (Nb Int) (a (Array Int Int)) (b (Array Int Int)) (vabs_0_f_f Int) (vabs_0_s_f_f Int)) (=> (assign_19_5_158_abs01 vabs_0_f_f (select b vabs_0_f_f) vabs_0_s_f_f (select a vabs_0_s_f_f) Nb Na i) (while_16_1_161_abs01 vabs_0_f_f (select b vabs_0_f_f) vabs_0_s_f_f (select a vabs_0_s_f_f) Nb Na (+ i 1)))))
(assert (forall ((i Int) (Na Int) (Nb Int) (a (Array Int Int)) (b (Array Int Int)) (vabs_0_f_f Int) (vabs_0_s_f_f Int)) (=> (assign_23_8_206_abs01 vabs_0_f_f (select b vabs_0_f_f) vabs_0_s_f_f (select a vabs_0_s_f_f) Nb Na i) (while_24_1_289_abs01 vabs_0_f_f (select b vabs_0_f_f) vabs_0_s_f_f (select a vabs_0_s_f_f) Nb Na Na))))
(assert (forall ((b (Array Int Int)) (a (Array Int Int)) (Nb Int) (Na Int) (i Int) (vabs_0_f_f Int) (vabs_0_s_f_f Int)) (=> (and (while_24_1_289_abs01 vabs_0_f_f (select b vabs_0_f_f) vabs_0_s_f_f (select a vabs_0_s_f_f) Nb Na i) (< i (+ Na Nb))) (assert_26_11_277_abs01 vabs_0_f_f (select b vabs_0_f_f) vabs_0_s_f_f (select a vabs_0_s_f_f) Nb Na i))))
(assert (forall ((b (Array Int Int)) (a (Array Int Int)) (Nb Int) (Na Int) (i Int) (vabs_0_f_f Int) (vabs_0_s_f_f Int)) (=> (and (while_24_1_289_abs01 vabs_0_f_f (select b vabs_0_f_f) vabs_0_s_f_f (select a vabs_0_s_f_f) Nb Na i) (not (< i (+ Na Nb)))) (end_abs01 vabs_0_f_f (select b vabs_0_f_f) vabs_0_s_f_f (select a vabs_0_s_f_f) Nb Na i))))
(assert (forall ((i Int) (Na Int) (Nb Int) (a (Array Int Int)) (b (Array Int Int))) (=> (assert_26_11_277_abs01 (- i Na) (select b (- i Na)) i (select a i) Nb Na i) (= (select a i) (select b (- i Na))))))
(assert (forall ((i Int) (Na Int) (Nb Int) (a (Array Int Int)) (b (Array Int Int)) (vabs_0_f_f Int) (vabs_0_s_f_f Int)) (=> (assert_26_11_277_abs01 vabs_0_f_f (select b vabs_0_f_f) vabs_0_s_f_f (select a vabs_0_s_f_f) Nb Na i) (assign_27_11_286_abs01 vabs_0_f_f (select b vabs_0_f_f) vabs_0_s_f_f (select a vabs_0_s_f_f) Nb Na i))))
(assert (forall ((i Int) (Na Int) (Nb Int) (a (Array Int Int)) (b (Array Int Int)) (vabs_0_f_f Int) (vabs_0_s_f_f Int)) (=> (assign_27_11_286_abs01 vabs_0_f_f (select b vabs_0_f_f) vabs_0_s_f_f (select a vabs_0_s_f_f) Nb Na i) (while_24_1_289_abs01 vabs_0_f_f (select b vabs_0_f_f) vabs_0_s_f_f (select a vabs_0_s_f_f) Nb Na (+ i 1)))))
(check-sat)